20
104
20
80
74
19
45
30
7
37
64
88
35
88
40
39
68
2
69
79
18
99
68
0 1
0 2
0 3
0 6
0 8
0 10
0 11
0 13
0 14
0 16
0 17
0 18
1 2
1 3
1 4
1 5
1 6
1 7
1 8
1 9
1 10
1 12
1 15
1 16
1 18
1 19
2 11
2 13
2 14
2 16
2 17
2 18
2 19
3 4
3 6
3 7
3 9
3 13
3 19
4 6
4 7
4 8
4 11
4 12
4 14
4 17
5 10
5 11
5 14
5 17
5 18
6 7
6 10
6 13
6 14
6 15
6 16
6 17
6 19
7 8
7 9
7 10
7 13
7 15
7 17
8 9
8 10
8 12
8 14
8 15
8 18
8 19
9 10
9 11
9 14
9 15
9 18
9 19
10 15
10 16
10 17
10 18
11 12
11 13
11 14
11 16
11 18
11 19
12 13
12 14
12 15
12 18
13 15
13 16
13 17
13 18
14 16
14 17
14 18
14 19
15 16
15 18
16 18
18 19
11
12
14
1
4
15
2
13
7
19
6
9
17
8
18
10
5
3
16
0
